c 0.0008959770202636719 (encode time in sec)
p cnf 67 71
1 2 3 4 0
1 2 -3 4 0
1 -2 3 4 0
1 -2 -3 4 0
-1 2 3 4 0
-1 2 -3 0
-1 -2 3 0
-1 -2 -3 0
5 1 2 3 6 0
5 1 2 -3 9 0
5 1 -2 3 7 0
5 1 -2 -3 10 0
5 -1 2 3 8 0
-5 1 2 3 11 0
-5 1 2 -3 12 0
-5 1 -2 3 13 0
-5 1 -2 -3 14 0
-5 -1 2 3 15 0
16 17 18 5 1 2 3 19 0
16 17 18 5 1 2 -3 20 0
16 17 18 5 1 -2 3 22 0
16 17 18 5 1 -2 -3 23 0
16 17 18 5 -1 2 3 21 0
16 17 18 -5 1 2 3 45 0
16 17 18 -5 1 2 -3 34 0
16 17 18 -5 1 -2 3 46 0
16 17 18 -5 1 -2 -3 24 0
16 17 18 -5 -1 2 3 25 0
16 17 -18 5 1 2 3 26 0
16 17 -18 5 1 2 -3 28 0
16 17 -18 5 1 -2 3 27 0
16 17 -18 5 1 -2 -3 47 0
16 17 -18 5 -1 2 3 33 0
16 17 -18 -5 1 2 3 41 0
16 17 -18 -5 1 2 -3 48 0
16 17 -18 -5 1 -2 3 49 0
16 17 -18 -5 1 -2 -3 29 0
16 17 -18 -5 -1 2 3 50 0
16 -17 18 5 1 2 3 66 0
16 -17 18 5 1 2 -3 51 0
16 -17 18 5 1 -2 3 52 0
16 -17 18 5 1 -2 -3 53 0
16 -17 18 5 -1 2 3 40 0
16 -17 18 -5 1 2 3 42 0
16 -17 18 -5 1 2 -3 54 0
16 -17 18 -5 1 -2 3 36 0
16 -17 18 -5 1 -2 -3 38 0
16 -17 18 -5 -1 2 3 50 0
16 -17 -18 5 1 2 3 35 0
16 -17 -18 5 1 2 -3 65 0
16 -17 -18 5 1 -2 3 30 0
16 -17 -18 5 1 -2 -3 55 0
16 -17 -18 5 -1 2 3 32 0
16 -17 -18 -5 1 2 3 56 0
16 -17 -18 -5 1 2 -3 63 0
16 -17 -18 -5 1 -2 3 43 0
16 -17 -18 -5 1 -2 -3 31 0
16 -17 -18 -5 -1 2 3 57 0
-16 17 18 5 1 2 3 44 0
-16 17 18 5 1 2 -3 59 0
-16 17 18 5 1 -2 3 61 0
-16 17 18 5 1 -2 -3 39 0
-16 17 18 5 -1 2 3 62 0
-16 17 18 -5 1 2 3 58 0
-16 17 18 -5 1 2 -3 37 0
-16 17 18 -5 1 -2 3 60 0
-16 17 18 -5 1 -2 -3 67 0
-16 17 18 -5 -1 2 3 64 0
-16 17 -18 0
-16 -17 18 0
-16 -17 -18 0
